Instance name: /home/cuong/CLionProjects/uMV-FSTSP/50_dis_rand_ins/v78
Write arg val: 1

drone speed: 1 miles/minute
uav non-eligible customer: 11 
Printing tau:
0 22.1968 54.4086 52.7059 51.6339 52.9552 69.1713 44.7307 70.0697 89.2419 100.122 0 
22.1968 0 61.2732 57.4579 29.4371 30.7585 46.9745 30.0697 47.8729 67.0451 77.9251 22.1968 
54.4086 61.2732 0 3.81525 59.4764 38.7928 46.5294 91.3429 99.514 41.274 45.7133 54.4086 
52.7059 57.4579 3.81525 0 55.6611 34.9776 42.7141 87.5277 95.6987 37.4587 47.416 52.7059 
51.6339 29.4371 59.4764 55.6611 0 20.6835 17.5374 31.8665 40.0376 37.608 48.488 51.6339 
52.9552 30.7585 38.7928 34.9776 20.6835 0 16.216 52.5501 60.7211 36.2867 47.1666 52.9552 
69.1713 46.9745 46.5294 42.7141 17.5374 16.216 0 44.8135 52.9846 20.0707 30.9506 69.1713 
44.7307 30.0697 91.3429 87.5277 31.8665 52.5501 44.8135 0 29.547 50.069 59.5992 44.7307 
70.0697 47.8729 99.514 95.6987 40.0376 60.7211 52.9846 29.547 0 58.24 55.4596 70.0697 
89.2419 67.0451 41.274 37.4587 37.608 36.2867 20.0707 50.069 58.24 0 10.88 89.2419 
100.122 77.9251 45.7133 47.416 48.488 47.1666 30.9506 59.5992 55.4596 10.88 0 100.122 
0 0 0 0 0 0 0 0 0 0 0 0 
Printing tau_prime:
0 3.76202 10.1321 9.60155 7.52535 7.5702 9.7823 8.53572 12.4164 12.6433 14.164 0 
3.76202 0 9.78979 9.20023 4.17078 5.38785 6.96273 4.98002 8.66507 9.89446 11.2861 3.76202 
10.1321 9.78979 0 0.590854 8.42038 5.48999 6.90351 13.0663 14.2466 7.63793 8.97831 10.1321 
9.60155 9.20023 0.590854 0 7.87313 4.9467 6.47396 12.4976 13.7548 7.40005 8.79485 9.60155 
7.52535 4.17078 8.42038 7.87313 0 2.93106 3.0828 4.7727 6.2336 5.9088 7.19573 7.52535 
7.5702 5.38785 5.48999 4.9467 2.93106 0 2.54092 7.63685 8.92184 5.14369 6.71175 7.5702 
9.7823 6.96273 6.90351 6.47396 3.0828 2.54092 0 7.52196 7.49423 2.93411 4.39105 9.7823 
8.53572 4.98002 13.0663 12.4976 4.7727 7.63685 7.52196 0 4.33541 9.87974 10.7594 8.53572 
12.4164 8.66507 14.2466 13.7548 6.2336 8.92184 7.49423 4.33541 0 8.67119 8.92065 12.4164 
12.6433 9.89446 7.63793 7.40005 5.9088 5.14369 2.93411 9.87974 8.67119 0 1.58811 12.6433 
14.164 11.2861 8.97831 8.79485 7.19573 6.71175 4.39105 10.7594 8.92065 1.58811 0 14.164 
0 0 0 0 0 0 0 0 0 0 0 0 
Version identifier: 22.1.1.0 | 2022-11-28 | 9160aff4d
CPXPARAM_MIP_Tolerances_Integrality              0
Tried aggregator 1 time.
MIP Presolve eliminated 1 rows and 12 columns.
MIP Presolve modified 20 coefficients.
Reduced MIP has 122 rows, 120 columns, and 510 nonzeros.
Reduced MIP has 110 binaries, 0 generals, 0 SOSs, and 0 indicators.
Presolve time = 0.00 sec. (0.27 ticks)
Found incumbent of value 552.826700 after 0.00 sec. (0.75 ticks)
Probing time = 0.00 sec. (0.26 ticks)
Cover probing fixed 0 vars, tightened 10 bounds.
Tried aggregator 1 time.
Detecting symmetries...
MIP Presolve eliminated 10 rows and 0 columns.
MIP Presolve modified 180 coefficients.
Reduced MIP has 112 rows, 120 columns, and 490 nonzeros.
Reduced MIP has 110 binaries, 0 generals, 0 SOSs, and 0 indicators.
Presolve time = 0.00 sec. (0.35 ticks)
Probing time = 0.00 sec. (0.26 ticks)
Clique table members: 67.
MIP emphasis: balance optimality and feasibility.
MIP search method: dynamic search.
Parallel mode: deterministic, using up to 20 threads.
Root relaxation solution time = 0.00 sec. (0.22 ticks)

        Nodes                                         Cuts/
   Node  Left     Objective  IInf  Best Integer    Best Bound    ItCnt     Gap

*     0+    0                          552.8267        0.0000           100.00%
      0     0      205.0808    20      552.8267      205.0808       26   62.90%
      0     0      277.5176    18      552.8267      Cuts: 27       41   49.80%
*     0+    0                          320.3393      277.5176            13.37%
      0     0      277.5175    18      320.3393      Cuts: 34       62   13.37%
*     0+    0                          291.9358      277.5176             4.94%
      0     0        cutoff            291.9358      291.9358       62    0.00%
Elapsed time = 0.13 sec. (6.59 ticks, tree = 0.01 MB, solutions = 3)

Clique cuts applied:  4
Implied bound cuts applied:  2
Mixed integer rounding cuts applied:  6
Multi commodity flow cuts applied:  6
Gomory fractional cuts applied:  2

Root node processing (before b&c):
  Real time             =    0.13 sec. (6.60 ticks)
Parallel b&c, 20 threads:
  Real time             =    0.00 sec. (0.00 ticks)
  Sync time (average)   =    0.00 sec.
  Wait time (average)   =    0.00 sec.
                          ------------
Total (root+branch&cut) =    0.13 sec. (6.60 ticks)

TSP solution for this instance: 0 1 7 8 4 5 6 9 10 2 3 11 
12
Warmstart X[1][0] == 1
Warmstart X[2][1] == 1
Warmstart X[3][7] == 1
Warmstart X[4][8] == 1
Warmstart X[5][4] == 1
Warmstart X[6][5] == 1
Warmstart X[7][6] == 1
Warmstart X[8][9] == 1
Warmstart X[9][10] == 1
Warmstart X[10][2] == 1
Warmstart X[11][3] == 1
---------------------------------------------
Calculate max stage gap for sortie.... 
Stage gap of 5 with smallest length = 19.0762 violated endurance constraint!
---------------------------------------------
Variable z[1][6] was set to 0.
Variable z[1][7] was set to 0.
Variable z[1][8] was set to 0.
Variable z[1][9] was set to 0.
Variable z[1][10] was set to 0.
Variable z[1][11] was set to 0.
Variable z[1][12] was set to 0.
Variable z[2][7] was set to 0.
Variable z[2][8] was set to 0.
Variable z[2][9] was set to 0.
Variable z[2][10] was set to 0.
Variable z[2][11] was set to 0.
Variable z[2][12] was set to 0.
Variable z[3][8] was set to 0.
Variable z[3][9] was set to 0.
Variable z[3][10] was set to 0.
Variable z[3][11] was set to 0.
Variable z[3][12] was set to 0.
Variable z[4][9] was set to 0.
Variable z[4][10] was set to 0.
Variable z[4][11] was set to 0.
Variable z[4][12] was set to 0.
Variable z[5][10] was set to 0.
Variable z[5][11] was set to 0.
Variable z[5][12] was set to 0.
Variable z[6][11] was set to 0.
Variable z[6][12] was set to 0.
Variable z[7][12] was set to 0.
Num constraint added = 0
Warning:  Output names have been modified due to duplicate names or characters invalid in LP format.
Version identifier: 22.1.1.0 | 2022-11-28 | 9160aff4d
CPXPARAM_TimeLimit                               200
CPXPARAM_MIP_Tolerances_Integrality              0
1 of 1 MIP starts provided solutions.
MIP start 'm1' defined initial solution with objective 291.9357.
Tried aggregator 2 times.
MIP Presolve eliminated 5432 rows and 1277 columns.
MIP Presolve modified 3420 coefficients.
Aggregator did 42 substitutions.
Reduced MIP has 1723 rows, 3457 columns, and 75381 nonzeros.
Reduced MIP has 3436 binaries, 0 generals, 0 SOSs, and 0 indicators.
Presolve time = 0.09 sec. (239.57 ticks)
Probing fixed 112 vars, tightened 0 bounds.
Probing changed sense of 4 constraints.
Probing time = 0.05 sec. (123.55 ticks)
Cover probing fixed 0 vars, tightened 23 bounds.
Tried aggregator 2 times.
Detecting symmetries...
MIP Presolve eliminated 75 rows and 112 columns.
MIP Presolve modified 324 coefficients.
Aggregator did 18 substitutions.
Reduced MIP has 1630 rows, 3327 columns, and 67156 nonzeros.
Reduced MIP has 3306 binaries, 0 generals, 0 SOSs, and 0 indicators.
Presolve time = 0.04 sec. (96.21 ticks)
Probing time = 0.00 sec. (5.61 ticks)
Clique table members: 12500.
MIP emphasis: balance optimality and feasibility.
MIP search method: dynamic search.
Parallel mode: deterministic, using up to 20 threads.
Root relaxation solution time = 0.16 sec. (344.59 ticks)

        Nodes                                         Cuts/
   Node  Left     Objective  IInf  Best Integer    Best Bound    ItCnt     Gap

*     0+    0                          291.9357        0.0000           100.00%
      0     0      140.2384   127      291.9357      140.2384       32   51.96%
      0     0      143.6580   170      291.9357      Cuts: 23     2207   50.79%
      0     0      147.3478   106      291.9357      Cuts: 52     5202   49.53%
      0     0      147.3478   122      291.9357      Cuts: 48     5698   49.53%
*     0+    0                          283.6620      147.3478            48.06%
      0     0  -1.00000e+75     0      283.6620      147.3478     5698   48.06%
      0     0      147.3478   109      283.6620   ZeroHalf: 1     5701   48.06%
      0     0      147.3478   116      283.6620  ZeroHalf: 46     8580   48.06%
Detecting symmetries...
Detecting symmetries...
      0     2      147.3478   116      283.6620      147.3478     8580   48.06%
Elapsed time = 2.37 sec. (4898.11 ticks, tree = 0.02 MB, solutions = 2)
      1     3      156.3614   145      283.6620      147.3478    13200   48.06%
*     2+    2                          228.1304      147.3478            35.41%
      2     4      156.8528   134      228.1304      147.3478    13817   35.41%
*     6+    3                          222.4844      147.3478            33.77%
*     6+    3                          214.0820      147.3478            31.17%
      6     5      159.1299   119      214.0820      147.3478    15370   31.17%
     20    11      189.0625   117      214.0820      147.6331    29531   31.04%
    242    46    infeasible            214.0820      147.6331    57042   31.04%
*   471+   67                          213.8819      147.6331            30.97%
    652   143        cutoff            213.8819      148.5995    87686   30.52%
   1149   281        cutoff            213.8819      148.5995   127942   30.52%
   1275   257      198.9486    45      213.8819      148.5995   152846   30.52%
   1600   243      197.1993    89      213.8819      148.5995   159920   30.52%
   4417    81        cutoff            213.8819      161.3583   293125   24.56%
Elapsed time = 5.51 sec. (8485.23 ticks, tree = 0.49 MB, solutions = 9)
   6659   330      209.5140   122      213.8819      172.0673   433431   19.55%
   8156   586      196.2192    61      213.8819      180.9347   557848   15.40%

Performing restart 1

Repeating presolve.
Tried aggregator 1 time.
MIP Presolve eliminated 10 rows and 134 columns.
MIP Presolve modified 11588 coefficients.
Reduced MIP has 1620 rows, 3193 columns, and 60394 nonzeros.
Reduced MIP has 3172 binaries, 0 generals, 0 SOSs, and 0 indicators.
Presolve time = 0.04 sec. (99.90 ticks)
Tried aggregator 1 time.
MIP Presolve eliminated 0 rows and 4 columns.
MIP Presolve modified 231 coefficients.
Reduced MIP has 1620 rows, 3189 columns, and 60321 nonzeros.
Reduced MIP has 3168 binaries, 0 generals, 0 SOSs, and 0 indicators.
Presolve time = 0.03 sec. (75.46 ticks)
Represolve time = 0.15 sec. (292.23 ticks)
   9114     0      148.6393   177      213.8819       Cuts: 6   673879   13.71%
   9114     0      150.1678   137      213.8819      Cuts: 17   675090   13.71%
   9114     0      150.3255   162      213.8819      Cuts: 25   676384   13.71%
   9114     0      150.3270   233      213.8819      Cuts: 10   677378   13.71%
   9114     0      150.3427   163      213.8819       Cuts: 8   680218   13.71%
   9114     0      150.3427   171      213.8819  ZeroHalf: 21   680471   13.71%
   9114     2      150.3427   156      213.8819      184.5559   680471   13.71%
   9115     3      150.5334   164      213.8819      184.5559   683171   13.71%
   9116     3      155.1651   145      213.8819      184.5559   683323   13.71%
   9122     6      158.5785   159      213.8819      184.5559   692482   13.71%
   9168    11      159.6768   192      213.8819      184.5559   703411   13.71%
   9250    34        cutoff            213.8819      184.5559   769484   13.71%
   9451    47      184.4947    70      213.8819      184.5559   788807   13.71%
  10072   160    infeasible            213.8819      184.5559   875104   13.71%
Elapsed time = 17.76 sec. (26565.00 ticks, tree = 0.66 MB, solutions = 9)
  10606   252      196.1890    71      213.8819      184.5559   980085   13.71%
  10870   283      211.0329    56      213.8819      184.5559  1061755   13.71%
  11796   336      205.1848   108      213.8819      184.5559  1128510   13.71%
  12283   618      201.8497    12      213.8819      184.5559  1329163   13.71%
  12861   429    infeasible            213.8819      184.5559  1431531   13.71%
  13509   166      209.4423    34      213.8819      184.5559  1518868   13.71%
  13750    28    infeasible            213.8819      184.5559  1585708   13.71%
  13995    27      196.3354    76      213.8819      184.5559  1651129   13.71%
  14919    23      210.9419   117      213.8819      184.5559  1731203   13.71%
  15416    33      198.3318    31      213.8819      184.5559  1902308   13.71%
Elapsed time = 28.76 sec. (36129.78 ticks, tree = 0.11 MB, solutions = 9)
  15717    26      206.7128    48      213.8819      184.5559  1990668   13.71%
  16246    21        cutoff            213.8819      184.5559  2037301   13.71%
  16478    19      202.2338    78      213.8819      184.5559  2103513   13.71%
  16524    11      188.8547   129      213.8819      184.5559  2154510   13.71%
  16574    11      185.5487   200      213.8819      184.5559  2191694   13.71%
  16655    12        cutoff            213.8819      184.5559  2236894   13.71%
  16695    13      197.6930   103      213.8819      184.5559  2263927   13.71%
  16727     6      205.9291   125      213.8819      184.5559  2293093   13.71%
  16752    10      198.5328   100      213.8819      191.3853  2334554   10.52%
  16848     8      204.1982   162      213.8819      198.2050  2355941    7.33%
Elapsed time = 35.88 sec. (45918.39 ticks, tree = 0.04 MB, solutions = 9)

GUB cover cuts applied:  11
Cover cuts applied:  45
Mixed integer rounding cuts applied:  5
Zero-half cuts applied:  14
Gomory fractional cuts applied:  4

Root node processing (before b&c):
  Real time             =    2.32 sec. (4808.68 ticks)
Parallel b&c, 20 threads:
  Real time             =   33.77 sec. (41664.33 ticks)
  Sync time (average)   =   15.07 sec.
  Wait time (average)   =    0.01 sec.
                          ------------
Total (root+branch&cut) =   36.09 sec. (46473.01 ticks)
Feasible solution found!
Truck nodes:
Stage 1 at customer 0 with arrival time is: 0
Stage 1 at customer 0 with departure time is: 0
Stage 2 at customer 3 with arrival time is: 52.7059
Stage 2 at customer 3 with departure time is: 53.7059
Stage 3 at customer 2 with arrival time is: 57.5211
Stage 3 at customer 2 with departure time is: 70.7439
Stage 4 at customer 3 with arrival time is: 74.5591
Stage 4 at customer 3 with departure time is: 89.517
Stage 5 at customer 5 with arrival time is: 124.495
Stage 5 at customer 5 with departure time is: 125.495
Stage 6 at customer 6 with arrival time is: 141.711
Stage 6 at customer 6 with departure time is: 143.711
Stage 7 at customer 4 with arrival time is: 161.248
Stage 7 at customer 4 with departure time is: 162.248
Stage 8 at customer 1 with arrival time is: 191.685
Stage 8 at customer 1 with departure time is: 191.685
Stage 9 at customer 11 with arrival time is: 213.882
Stage 9 at customer 11 with departure time is: 213.882
Truck arcs:
Arc 1 connecting 0 and 3 with cost 52.7059 
Arc 2 connecting 3 and 2 with cost 3.81525 
Arc 3 connecting 2 and 3 with cost 3.81525 
Arc 4 connecting 3 and 5 with cost 34.9776 
Arc 5 connecting 5 and 6 with cost 16.216 
Arc 6 connecting 6 and 4 with cost 17.5374 
Arc 7 connecting 4 and 1 with cost 29.4371 
Arc 8 connecting 1 and 11 with cost 22.1968 
Customer 7 served by drone.
Drone fly from 5 at stage 5 to serve 7 and then fly back to 6 at stage 6. 
Truck arcs during this sortie: 5--->6
Truck travel time from stage 5 to 6 is: 16.216
Total drone travel time: 15.1588
Drone arrival time: 140.653
Truck arrival time: 141.711
Truck departure time = max(d/a, t/a) plus (sl/sr): 143.711
Customer 8 served by drone.
Drone fly from 6 at stage 6 to serve 8 and then fly back to 4 at stage 7. 
Truck arcs during this sortie: 6--->4
Truck travel time from stage 6 to 7 is: 17.5374
Total drone travel time: 13.7278
Drone arrival time: 157.438
Truck arrival time: 161.248
Truck departure time = max(d/a, t/a) plus (sl/sr): 162.248
Customer 9 served by drone.
Drone fly from 3 at stage 2 to serve 9 and then fly back to 2 at stage 3. 
Truck arcs during this sortie: 3--->2
Truck travel time from stage 2 to 3 is: 3.81525
Total drone travel time: 15.038
Drone arrival time: 68.7439
Truck arrival time: 57.5211
Truck departure time = max(d/a, t/a) plus (sl/sr): 70.7439
Customer 10 served by drone.
Drone fly from 2 at stage 3 to serve 10 and then fly back to 3 at stage 4. 
Truck arcs during this sortie: 2--->3
Truck travel time from stage 3 to 4 is: 3.81525
Total drone travel time: 17.7732
Drone arrival time: 88.517
Truck arrival time: 74.5591
Truck departure time = max(d/a, t/a) plus (sl/sr): 89.517
Done!
-------------------------Re-calculated objective-----------------------
213.882
------------------------------------------------------------------------
Solve time: 36.091
Node 3 was revisited 1 times!
OBJECTIVE VALUE: 213.882, NUMBER OF SORTIES: 4.
Number of revisit: 1
In write mode
